language Essence 1.3

letting pain be
        [(
          1,
            {(
                (14,15,83) ,4 ,
                [ { ( (32, [[(92,93,94), (52,53,54)]] ), 99 ) } ]
            )},
          (15, 16, 17, 18)
        )]
